142
100
4
48
3
30
2
25
33
17
40
2
41
33
9
19
42
8
40
5
49
34
4
15
18
19
9
30
27
4
1
31
7
6
5
49
46
1
50
4
17
26
27
38
45
41
34
9
7
32
18
18
46
26
12
8
33
12
5
12
37
19
37
8
33
18
27
16
5
47
7
1
16
10
28
38
5
2
48
2
50
5
2
4
13
12
13
9
27
4
28
30
44
2
47
6
15
11
10
40
34
25
36
10
16
19
12
5
44
11
5
44
37
1
5
30
11
48
3
1
22
6
18
36
12
19
20
23
29
40
4
35
10
49
11
47
4
8
32
19
6
50
20
31
